Second Year - 2020-2021/First Semester/Algorithm Analysis/Homework 2/sat_in/bonus/10.wcnf
p wcnf 9 33 193
193 1 3 0
193 1 4 0
193 1 5 0
193 1 6 0
193 1 8 0
193 1 9 0
193 2 3 0
193 2 4 0
193 2 5 0
193 2 7 0
193 2 8 0
193 2 9 0
193 3 5 0
193 3 6 0
193 3 7 0
193 3 8 0
193 3 9 0
193 4 5 0
193 5 7 0
193 5 8 0
193 6 7 0
193 7 8 0
193 7 9 0
193 8 9 0
18 -1 0
18 -2 0
19 -3 0
23 -4 0
22 -5 0
23 -6 0
22 -7 0
23 -8 0
24 -9 0
