Second Year - 2020-2021/First Semester/Algorithm Analysis/Homework 2/out/task2/10.out
True
3 4 7 